# Solution for model obj
# Objective value = 0.09375
y_1_14_1_3 0
y_1_14_1_4 0
y_1_14_2_3 0
y_1_18_3_2 0
y_1_18_4_1 0
y_1_18_4_2 0
y_2_39_1_3 0
y_2_39_1_4 0
y_2_40_1_1 0
y_2_40_1_2 0
y_2_40_1_3 0
y_2_40_1_4 0
y_2_41_1_3 0
y_2_43_1_1 0
y_2_43_1_2 0
y_2_25_2_1 0
y_2_25_2_4 0
y_2_32_2_1 0
y_2_39_2_3 0
y_2_40_2_2 0
y_2_40_2_3 0
y_2_43_2_2 0
y_2_25_3_4 0
y_2_32_3_4 0
y_2_35_3_1 0
y_2_35_3_2 0
y_2_37_3_1 0
y_2_37_3_2 0
y_2_40_3_3 0
y_2_43_3_2 0
y_2_43_3_3 0
y_2_35_4_1 0
y_2_37_4_1 0
y_2_40_4_3 0
y_2_40_4_4 0
y_2_43_4_1 1
y_2_43_4_2 0
y_2_43_4_3 0
y_2_43_4_4 0
y_3_4_1_2 0
y_3_33_1_2 0
y_3_15_2_1 0
y_3_15_3_4 0
y_3_4_4_3 0
y_3_33_4_2 0
y_3_33_4_3 0
y_4_33_1_1 0
y_4_33_2_1 0
y_4_33_2_2 0
y_4_33_3_1 0
y_4_33_3_2 0
y_4_33_3_3 0
y_4_33_3_4 0
y_4_33_4_1 0
y_4_33_4_4 0
y_4_39_4_2 0
y_5_9_1_2 0
y_5_20_1_2 0
y_5_9_4_2 0
y_5_9_4_3 0
y_5_20_4_2 0
y_5_20_4_3 0
y_7_8_1_1 0
y_7_8_1_2 0
y_7_8_2_2 0
y_7_8_3_3 0
y_7_8_4_3 0
y_7_8_4_4 0
y_8_27_4_2 0
y_9_20_1_1 0
y_9_20_1_2 0
y_9_20_2_2 0
y_9_20_3_3 0
y_9_20_4_3 0
y_9_20_4_4 0
y_10_11_1_1 0
y_10_19_1_1 0
y_10_19_1_2 0
y_10_19_1_3 0
y_10_19_1_4 0
y_10_21_1_3 0
y_10_28_1_2 0
y_10_57_1_4 0
y_10_11_2_1 0
y_10_11_2_2 0
y_10_19_2_2 0
y_10_19_2_3 0
y_10_57_2_3 0
y_10_57_2_4 0
y_10_11_3_3 0
y_10_11_3_4 0
y_10_19_3_3 0
y_10_11_4_4 0
y_10_19_4_3 0
y_10_19_4_4 0
y_10_28_4_2 0
y_10_28_4_3 0
y_11_19_1_1 0
y_11_19_1_2 0
y_11_19_1_3 0
y_11_19_1_4 0
y_11_21_1_3 0
y_11_57_1_3 0
y_11_57_1_4 0
y_11_19_2_2 0
y_11_19_2_3 0
y_11_57_2_3 0
y_11_19_3_3 0
y_11_19_4_3 0
y_11_19_4_4 0
y_12_13_1_4 0
y_12_21_1_2 0
y_12_13_2_3 0
y_12_13_2_4 0
y_12_57_3_2 0
y_12_19_4_2 0
y_12_21_4_2 0
y_12_21_4_3 0
y_12_57_4_1 0
y_12_57_4_2 0
y_13_22_1_3 0
y_14_24_1_3 0
y_14_24_1_4 0
y_14_24_2_3 0
y_16_17_1_1 0
y_16_17_1_2 0
y_16_24_1_1 0
y_16_24_1_2 0
y_16_25_1_2 0
y_16_32_1_2 0
y_16_33_1_3 0
y_16_17_2_2 0
y_16_24_2_2 0
y_16_17_3_3 0
y_16_24_3_2 0
y_16_24_3_3 0
y_16_17_4_3 0
y_16_17_4_4 0
y_16_24_4_1 0
y_16_24_4_2 0
y_16_24_4_3 0
y_16_24_4_4 0
y_16_25_4_3 0
y_16_32_4_2 0
y_16_32_4_3 0
y_17_24_1_1 0
y_17_24_1_2 0
y_17_25_1_1 0
y_17_25_1_2 0
y_17_32_1_2 0
y_17_33_1_3 0
y_17_24_2_2 0
y_17_25_2_2 0
y_17_24_3_2 0
y_17_24_3_3 0
y_17_25_3_3 0
y_17_24_4_1 0
y_17_24_4_2 0
y_17_24_4_3 0
y_17_24_4_4 0
y_17_25_4_3 0
y_17_25_4_4 0
y_17_32_4_2 0
y_17_32_4_3 0
y_18_23_1_1 0
y_18_23_1_2 0
y_18_23_2_2 0
y_18_22_3_2 0
y_18_23_3_2 0
y_18_23_3_3 0
y_18_22_4_1 0
y_18_22_4_2 0
y_18_23_4_1 0
y_18_23_4_2 0
y_18_23_4_3 0
y_18_23_4_4 0
y_18_31_4_2 0
y_19_21_1_3 0
y_19_21_1_4 0
y_19_56_1_3 0
y_19_57_1_1 0
y_19_57_1_4 0
y_19_21_2_3 0
y_19_57_2_1 0
y_19_57_2_2 0
y_19_57_2_3 0
y_19_57_2_4 0
y_19_57_3_3 0
y_19_57_3_4 0
y_19_28_4_2 0
y_19_30_4_2 0
y_19_57_4_4 0
y_20_52_1_3 0
y_21_34_1_3 0
y_21_56_1_2 0
y_21_56_1_3 0
y_21_57_2_1 0
y_21_57_3_1 0
y_21_57_3_4 0
y_21_56_4_3 0
y_22_23_1_1 0
y_22_23_1_4 0
y_22_31_1_1 0
y_22_31_1_2 0
y_22_23_2_1 0
y_22_23_2_2 0
y_22_23_2_3 0
y_22_23_2_4 0
y_22_31_2_2 0
y_22_23_3_3 0
y_22_23_3_4 0
y_22_26_3_2 0
y_22_31_3_2 0
y_22_31_3_3 0
y_22_23_4_4 0
y_22_26_4_1 0
y_22_26_4_2 0
y_22_31_4_1 0
y_22_31_4_2 0
y_22_31_4_3 0
y_22_31_4_4 0
y_22_47_4_2 0
y_23_36_1_3 0
y_23_26_3_2 0
y_23_31_3_2 0
y_23_26_4_1 0
y_23_26_4_2 0
y_23_31_4_1 0
y_23_31_4_2 0
y_23_47_4_2 0
y_24_25_1_1 0
y_24_25_1_2 0
y_24_25_1_3 0
y_24_25_1_4 0
y_24_32_1_2 0
y_24_25_2_2 0
y_24_25_2_3 0
y_24_25_3_3 0
y_24_25_4_3 0
y_24_25_4_4 0
y_24_32_4_3 0
y_24_35_4_2 0
y_24_37_4_2 1
y_25_32_1_1 0
y_25_32_1_2 0
y_25_33_1_3 0
y_25_33_1_4 0
y_25_32_2_2 0
y_25_33_2_3 0
y_25_32_3_2 0
y_25_32_3_3 0
y_25_32_4_1 0
y_25_32_4_2 0
y_25_32_4_3 0
y_25_32_4_4 0
y_26_31_1_1 0
y_26_31_1_2 0
y_26_31_1_3 0
y_26_31_1_4 0
y_26_47_1_2 0
y_26_31_2_2 0
y_26_31_2_3 0
y_26_31_3_3 0
y_26_34_3_2 0
y_26_31_4_3 0
y_26_31_4_4 0
y_26_34_4_1 0
y_26_34_4_2 0
y_26_45_4_2 0
y_26_47_4_3 0
y_27_29_1_3 0
y_27_29_1_4 0
y_27_48_1_2 0
y_27_48_1_3 0
y_27_50_1_2 0
y_27_50_1_3 0
y_27_53_1_1 0
y_27_53_1_2 0
y_27_58_1_1 0
y_27_58_1_2 0
y_27_29_2_3 0
y_27_53_2_2 0
y_27_58_2_2 0
y_27_53_3_2 0
y_27_53_3_3 0
y_27_58_3_2 0
y_27_58_3_3 0
y_27_48_4_3 0
y_27_50_4_3 0
y_27_52_4_2 0
y_27_53_4_1 0
y_27_53_4_2 0
y_27_53_4_3 0
y_27_53_4_4 0
y_27_58_4_1 0
y_27_58_4_2 0
y_27_58_4_3 0
y_27_58_4_4 0
y_28_30_1_1 0
y_28_30_1_2 0
y_28_44_1_2 0
y_28_54_1_2 0
y_28_54_1_3 0
y_28_30_2_2 0
y_28_57_2_4 0
y_28_29_3_2 0
y_28_30_3_3 0
y_28_29_4_1 0
y_28_29_4_2 0
y_28_30_4_3 0
y_28_30_4_4 0
y_28_44_4_2 0
y_28_44_4_3 0
y_28_54_4_3 0
y_29_30_1_3 0
y_29_30_1_4 0
y_29_44_1_3 0
y_29_30_2_3 0
y_29_48_4_2 0
y_29_50_4_2 0
y_30_44_1_2 0
y_30_54_1_2 0
y_30_54_1_3 0
y_30_44_4_2 0
y_30_44_4_3 0
y_30_54_4_3 0
y_31_46_1_3 0
y_31_47_1_1 0
y_31_47_1_2 0
y_31_55_1_3 0
y_31_47_2_2 0
y_31_47_3_2 0
y_31_47_3_3 0
y_31_45_4_2 0
y_31_47_4_1 0
y_31_47_4_2 0
y_31_47_4_3 0
y_31_47_4_4 0
y_32_39_1_3 0
y_32_40_1_2 1
y_32_40_1_3 0
y_32_35_3_2 0
y_32_37_3_2 0
y_32_35_4_1 0
y_32_35_4_2 0
y_32_37_4_1 0
y_32_37_4_2 0
y_32_40_4_3 0
y_33_39_1_2 0
y_33_39_4_2 0
y_33_39_4_3 0
y_34_45_1_2 0
y_34_45_1_3 0
y_34_47_1_3 0
y_34_47_1_4 0
y_34_56_1_1 0
y_34_47_2_3 0
y_34_56_2_1 0
y_34_56_2_2 0
y_34_56_3_1 0
y_34_56_3_2 0
y_34_56_3_3 0
y_34_56_3_4 0
y_34_45_4_3 0
y_34_56_4_1 0
y_34_56_4_4 0
y_35_37_1_1 0
y_35_37_1_2 0
y_35_38_1_1 0
y_35_38_1_2 0
y_35_43_1_3 0
y_35_37_2_2 0
y_35_38_2_2 0
y_35_36_3_2 0
y_35_37_3_3 0
y_35_38_3_2 0
y_35_38_3_3 0
y_35_36_4_1 0
y_35_36_4_2 0
y_35_37_4_3 0
y_35_37_4_4 0
y_35_38_4_1 0
y_35_38_4_2 0
y_35_38_4_3 0
y_35_38_4_4 0
y_36_37_1_3 0
y_36_37_1_4 0
y_36_38_1_3 0
y_36_38_1_4 0
y_36_37_2_3 0
y_36_38_2_3 0
y_36_46_3_2 0
y_36_55_3_2 0
y_36_42_4_2 0
y_36_46_4_1 0
y_36_46_4_2 0
y_36_55_4_1 0
y_36_55_4_2 0
y_37_38_1_1 0
y_37_38_1_2 0
y_37_43_1_3 0
y_37_38_2_2 0
y_37_38_3_2 0
y_37_38_3_3 0
y_37_38_4_1 0
y_37_38_4_2 0
y_37_38_4_3 0
y_37_38_4_4 0
y_38_43_1_3 0
y_38_43_1_4 0
y_38_43_2_3 0
y_39_41_1_1 0
y_39_41_1_2 0
y_39_41_2_2 0
y_39_40_3_2 0
y_39_41_3_2 0
y_39_41_3_3 0
y_39_40_4_1 0
y_39_40_4_2 0
y_39_41_4_1 0
y_39_41_4_2 0
y_39_41_4_3 0
y_39_41_4_4 0
y_40_41_1_1 0
y_40_41_1_2 0
y_40_41_1_3 0
y_40_41_1_4 0
y_40_41_2_2 0
y_40_41_2_3 0
y_40_41_3_3 0
y_40_43_3_2 0
y_40_41_4_3 0
y_40_41_4_4 0
y_40_43_4_1 0
y_40_43_4_2 0
y_41_43_3_1 0
y_41_43_3_2 0
y_41_43_4_1 0
y_42_55_1_1 0
y_42_46_2_1 0
y_42_46_2_4 0
y_42_55_2_1 0
y_42_55_2_2 0
y_42_46_3_4 0
y_42_47_3_1 0
y_42_55_3_3 0
y_42_55_3_4 0
y_42_55_4_4 0
y_44_54_1_4 0
y_44_54_2_3 0
y_44_54_2_4 0
y_45_47_1_4 0
y_45_47_2_3 0
y_45_47_2_4 0
y_45_56_3_1 0
y_46_55_1_1 0
y_46_55_1_2 0
y_46_55_2_2 0
y_46_55_3_2 0
y_46_55_3_3 0
y_46_55_4_1 0
y_46_55_4_2 0
y_46_55_4_3 0
y_46_55_4_4 0
y_47_55_1_3 0
y_47_55_1_4 0
y_47_55_2_3 0
y_48_50_1_1 0
y_48_50_2_1 0
y_48_50_2_2 0
y_48_50_3_3 0
y_48_50_3_4 0
y_48_53_3_1 0
y_48_58_3_1 0
y_48_50_4_4 0
y_49_51_1_4 0
y_49_51_2_3 0
y_49_51_2_4 0
y_50_53_3_1 0
y_50_53_3_2 0
y_50_58_3_1 0
y_50_53_4_1 0
y_51_52_1_4 0
y_51_52_2_3 0
y_51_52_2_4 0
y_52_53_1_4 0
y_52_58_1_4 0
y_52_53_2_3 0
y_52_53_2_4 0
y_52_58_2_3 0
y_52_58_2_4 0
y_53_58_1_1 0
y_53_58_2_1 0
y_53_58_2_2 0
y_53_58_3_3 0
y_53_58_3_4 0
y_53_58_4_4 0
x_1_1 0
x_14_3 0
x_14_4 1
x_1_2 1
x_1_3 0
x_18_2 1
x_1_4 0
x_18_1 0
x_2_1 0
x_39_3 0
x_39_4 0
x_40_1 0
x_40_2 1
x_40_3 0
x_40_4 0
x_41_3 0
x_43_1 1
x_43_2 0
x_2_2 0
x_25_1 0
x_25_4 0
x_32_1 1
x_2_3 0
x_32_4 0
x_35_1 0
x_35_2 0
x_37_1 0
x_37_2 1
x_43_3 0
x_2_4 1
x_43_4 0
x_3_1 0
x_4_2 0
x_33_2 1
x_3_2 1
x_15_1 0
x_3_3 0
x_15_4 0
x_3_4 0
x_4_3 0
x_33_3 0
x_4_1 1
x_33_1 0
x_33_4 0
x_4_4 0
x_39_2 1
x_5_1 0
x_9_2 1
x_20_2 0
x_5_4 0
x_9_3 0
x_20_3 0
x_7_1 1
x_8_1 0
x_8_2 0
x_7_2 0
x_7_3 0
x_8_3 1
x_7_4 0
x_8_4 0
x_27_2 0
x_9_1 0
x_20_1 1
x_9_4 0
x_20_4 0
x_10_1 0
x_11_1 0
x_19_1 1
x_19_2 0
x_19_3 0
x_19_4 0
x_21_3 0
x_28_2 0
x_57_4 0
x_10_2 0
x_11_2 1
x_57_3 0
x_10_3 1
x_11_3 0
x_11_4 0
x_10_4 0
x_28_3 1
x_12_1 0
x_13_4 0
x_21_2 1
x_12_2 1
x_13_3 0
x_12_3 0
x_57_2 1
x_12_4 0
x_57_1 0
x_13_1 0
x_22_3 1
x_14_1 0
x_24_3 0
x_24_4 1
x_14_2 0
x_16_1 0
x_17_1 0
x_17_2 0
x_24_1 0
x_24_2 0
x_25_2 1
x_32_2 0
x_16_2 1
x_16_3 0
x_17_3 1
x_16_4 0
x_17_4 0
x_25_3 0
x_32_3 0
x_23_1 1
x_23_2 0
x_18_3 0
x_22_2 0
x_23_3 0
x_18_4 0
x_22_1 0
x_23_4 0
x_31_2 0
x_21_4 0
x_56_3 0
x_30_2 0
x_52_3 0
x_21_1 0
x_34_3 0
x_56_2 1
x_31_1 1
x_26_2 0
x_31_3 0
x_22_4 0
x_26_1 0
x_31_4 0
x_47_2 0
x_36_3 0
x_26_3 1
x_34_2 0
x_26_4 0
x_34_1 0
x_45_2 0
x_47_3 1
x_27_1 0
x_29_3 1
x_29_4 0
x_48_2 0
x_48_3 0
x_50_2 0
x_50_3 0
x_53_1 0
x_53_2 0
x_58_1 1
x_58_2 0
x_27_3 1
x_53_3 0
x_58_3 0
x_27_4 0
x_52_2 0
x_53_4 1
x_58_4 0
x_28_1 0
x_30_1 1
x_44_2 0
x_54_2 0
x_54_3 0
x_29_2 0
x_30_3 0
x_28_4 0
x_29_1 0
x_30_4 0
x_44_3 0
x_46_3 0
x_47_1 0
x_55_3 0
x_47_4 0
x_45_3 0
x_56_1 0
x_56_4 0
x_34_4 1
x_38_1 1
x_38_2 0
x_35_3 1
x_36_2 0
x_37_3 0
x_38_3 0
x_35_4 0
x_36_1 1
x_37_4 0
x_38_4 0
x_46_2 1
x_55_2 0
x_36_4 0
x_42_2 0
x_46_1 0
x_55_1 0
x_39_1 0
x_41_1 1
x_41_2 0
x_41_4 0
x_42_1 1
x_46_4 0
x_42_3 0
x_55_4 1
x_42_4 0
x_44_1 0
x_54_4 0
x_45_1 0
x_48_1 0
x_50_1 1
x_50_4 0
x_48_4 1
x_49_1 0
x_51_4 1
x_49_2 0
x_51_3 0
x_51_1 0
x_52_4 1
x_51_2 0
x_52_1 0
x_5_2 0
x_5_3 1
x_6_1 1
x_6_2 0
x_6_3 0
x_6_4 0
x_13_2 1
x_15_2 0
x_15_3 1
x_44_4 1
x_45_4 1
x_49_3 0
x_49_4 1
x_54_1 1
